p tw 25 75
0 1
0 6
0 10
0 11
0 5
0 4
0 7
0 22
1 14
1 16
1 9
2 3
2 10
2 16
2 17
2 8
2 22
2 6
3 8
3 24
3 12
3 16
4 5
4 19
4 11
4 10
4 13
4 15
5 11
5 12
5 7
6 12
6 21
6 18
6 23
6 9
6 7
7 8
7 15
7 21
7 9
7 22
7 12
7 13
8 10
8 11
8 9
8 13
9 10
9 18
9 22
10 16
10 15
10 22
10 11
10 17
10 13
11 17
11 19
11 18
11 20
12 13
12 14
12 17
13 22
13 18
14 18
14 21
14 20
14 17
15 21
16 20
16 17
18 19
21 24
